50;1,2,3,4,5,6,7,8,9,10,11,12,-1,-1,-1,-1,-1,-1;1,0,0,0,0,0,0,0,0,0,0,1,0,0,0,0,0,1;12; 
50;62,13,14,15,6,16,17,18,19,20,21,22,-1,-1,-1,-1,-1,-1;1,1,1,1,1,1,1,1,1,1,1,1,1,1,1,1,1,1;12;
50;23,24,25,26,4,27,28,29,30,31,6,32,33,7,34,8,35,36;1,1,1,1,1,1,1,1,1,1,1,1,1,1,1,1,1,1;18;
50;37,38,4,39,40,41,0,42,43,44,8,-1,-1,-1,-1,-1,-1,-1; 1,1,1,1,1,1,1,1,1,1,1,1,1,1,1,1,1,1;11;
50;45,46,0,15,47,48,6,16,49,50,19,51,-1,-1,-1,-1,-1,-1;1,1,1,1,1,1,1,1,1,1,1,1,1,1,1,1,1,1;12;
50;52,53,30,54,5,55,48,56,33,34,57,58,59,-1,-1,-1,-1,-1;1,1,1,1,1,1,1,1,1,1,1,1,1,1,1,1,1,1;13;
50;6,32,56,44,60,61,-1,-1,-1,-1,-1,-1,-1,-1,-1,-1,-1,-1;1,1,1,1,1,1,1,1,1,1,1,1,1,1,1,1,1,1;6;